Reading model...
...model read.
creating competitive generators file...
...competitive generators recorded.
Loading data...
.. real-time data read.
Compiling instance...
...instance created.
Creating Offer Mitigation (model will solve as dispatch if TRUE)...
NOTE: storage offers will not be mitigated
...storage offer mitigation file created
Converting model to MPEC...
...converted
NOTE: initial MIP solve with only storage competitive to get feasible solution
Solving...

Welcome to IBM(R) ILOG(R) CPLEX(R) Interactive Optimizer 12.9.0.0
  with Simplex, Mixed Integer & Barrier Optimizers
5725-A06 5725-A29 5724-Y48 5724-Y49 5724-Y54 5724-Y55 5655-Y21
Copyright IBM Corp. 1988, 2019.  All Rights Reserved.

Type 'help' for a list of available commands.
Type 'help' followed by a command name for more
information on commands.

CPLEX> Logfile 'cplex.log' closed.
Logfile 'C:\Users\llavin\Desktop\test826\logs\tmpb7t8iau0.cplex.log' open.
CPLEX> New value for parallel optimization mode: -1
CPLEX> New value for mixed integer optimality gap tolerance: 0.01
CPLEX> New value for feasibility tolerance: 1e-09
CPLEX> New value for deterministic time limit in ticks: 100000
CPLEX> Problem 'C:\Users\llavin\Desktop\test826\logs\tmppj9sr0lb.pyomo.lp' read.
Read time = 0.53 sec. (28.55 ticks)
CPLEX> Problem name         : C:\Users\llavin\Desktop\test826\logs\tmppj9sr0lb.pyomo.lp
Objective sense      : Maximize
Variables            :  107781  [Nneg: 1,  Box: 44056,  Free: 8928,
                                 Binary: 54796]
Objective nonzeros   :   19009
Linear constraints   :  246901  [Less: 82866,  Greater: 118424,  Equal: 45611]
  Nonzeros           :  619709
  RHS nonzeros       :  136515

Variables            : Min LB: -5000.000        Max UB: 1000000.       
Objective nonzeros   : Min   : 0.02500000       Max   : 208.3333       
Linear constraints   :
  Nonzeros           : Min   : 0.02500000       Max   : 1000000.       
  RHS nonzeros       : Min   : 0.02500000       Max   : 1000000.       
CPLEX> CPXPARAM_Parallel                                -1
CPXPARAM_Simplex_Tolerances_Feasibility          1.0000000000000001e-09
CPXPARAM_DetTimeLimit                            100000
CPXPARAM_MIP_Tolerances_MIPGap                   0.01
Tried aggregator 3 times.
MIP Presolve eliminated 172867 rows and 34154 columns.
MIP Presolve added 7711 rows and 0 columns.
MIP Presolve modified 53774 coefficients.
Aggregator did 26044 substitutions.
Reduced MIP has 55701 rows, 47199 columns, and 182141 nonzeros.
Reduced MIP has 18721 binaries, 0 generals, 0 SOSs, and 0 indicators.
Presolve time = 0.66 sec. (386.78 ticks)
Probing fixed 715 vars, tightened 10917 bounds.
Probing time = 0.45 sec. (17.21 ticks)
Tried aggregator 2 times.
MIP Presolve eliminated 1622 rows and 1443 columns.
MIP Presolve modified 7045 coefficients.
Aggregator did 96 substitutions.
Reduced MIP has 53983 rows, 45660 columns, and 176947 nonzeros.
Reduced MIP has 18004 binaries, 0 generals, 0 SOSs, and 0 indicators.
Presolve time = 0.31 sec. (281.47 ticks)
Probing fixed 0 vars, tightened 376 bounds.
Probing time = 0.63 sec. (18.78 ticks)
Clique table members: 96629.
MIP emphasis: balance optimality and feasibility.
MIP search method: dynamic search.
Parallel mode: opportunistic, using up to 32 threads.
Root relaxation solution time = 2.13 sec. (3405.97 ticks)

        Nodes                                         Cuts/
   Node  Left     Objective  IInf  Best Integer    Best Bound    ItCnt     Gap

      0     0    -3384.0197   407                  -3384.0197    12797         
      0     0    -3384.0197    46                    Cuts: 49    12820         
      0     0    -3385.6683    39                    Cuts: 19    12846         
      0     0    -3385.6683    41                    Cuts: 10    12854         
      0     0    -3386.1211    22                 Flowcuts: 6    12859         
      0     0    -3386.1211    23                   Covers: 1    12861         
*     0+    0                        -4602.3672    -3386.1211            26.43%
      0     3    -3386.8985    16    -4602.3672  Impl Bds: 19    12862   26.41%
Elapsed time = 19.25 sec. (13099.65 ticks, tree = 0.02 MB, solutions = 1)
    316    53    -3394.1140    12    -4602.3672    -3387.6867    13278   26.39%
*   404   146      integral     0    -3475.1187    -3387.6867    13913    2.52%
*   429    82      integral     0    -3387.6867    -3387.6867    13557    0.00%
    697   222    -3390.0208     5    -3387.6867    -3387.6867    14594    0.00%
    698   166    -3392.1429     3    -3387.6867    -3387.6867    13943    0.00%

Implied bound cuts applied:  19
Flow cuts applied:  31
Gomory fractional cuts applied:  14

Root node processing (before b&c):
  Real time             =   14.78 sec. (12993.03 ticks)
Parallel b&c, 32 threads:
  Real time             =    7.95 sec. (996.19 ticks)
  Sync time (average)   =    1.85 sec.
  Wait time (average)   =    0.00 sec.
                          ------------
Total (root+branch&cut) =   22.73 sec. (13989.23 ticks)

Solution pool: 10 solutions saved.

MIP - Integer optimal solution:  Objective = -3.3876867455e+03
Solution time =   22.78 sec.  Iterations = 16475  Nodes = 699
Deterministic time = 13989.54 ticks  (614.06 ticks/sec)

CPLEX> Incumbent solution written to file 'C:\Users\llavin\Desktop\test826\logs\tmpfln7tfpq.cplex.sol'.
CPLEX> NOTE: no warmstart specified for MIP iteration, default behavior is true
NOTE: resolving with all competitive generators using storage-only solution to warmstart
Solving...

Welcome to IBM(R) ILOG(R) CPLEX(R) Interactive Optimizer 12.9.0.0
  with Simplex, Mixed Integer & Barrier Optimizers
5725-A06 5725-A29 5724-Y48 5724-Y49 5724-Y54 5724-Y55 5655-Y21
Copyright IBM Corp. 1988, 2019.  All Rights Reserved.

Type 'help' for a list of available commands.
Type 'help' followed by a command name for more
information on commands.

CPLEX> Logfile 'cplex.log' closed.
Logfile 'C:\Users\llavin\Desktop\test826\logs\tmpnq1iusis.cplex.log' open.
CPLEX> New value for parallel optimization mode: -1
CPLEX> New value for mixed integer optimality gap tolerance: 0.01
CPLEX> New value for feasibility tolerance: 1e-09
CPLEX> New value for deterministic time limit in ticks: 100000
CPLEX> Problem 'C:\Users\llavin\Desktop\test826\logs\tmpbdlu40cc.pyomo.lp' read.
Read time = 0.52 sec. (28.60 ticks)
CPLEX> MIP start file 'C:\Users\llavin\Desktop\test826\logs\tmp1dmxvne1.cplex.mst' read.
CPLEX> Problem name         : C:\Users\llavin\Desktop\test826\logs\tmpbdlu40cc.pyomo.lp
Objective sense      : Maximize
Variables            :  109221  [Nneg: 1,  Box: 45496,  Free: 8928,
                                 Binary: 54796]
Objective nonzeros   :   20401
Linear constraints   :  246901  [Less: 82866,  Greater: 118424,  Equal: 45611]
  Nonzeros           :  619709
  RHS nonzeros       :  136515

Variables            : Min LB: -5000.000        Max UB: 1000000.       
Objective nonzeros   : Min   : 0.02500000       Max   : 208.3333       
Linear constraints   :
  Nonzeros           : Min   : 0.02500000       Max   : 1000000.       
  RHS nonzeros       : Min   : 0.02500000       Max   : 1000000.       
CPLEX> CPXPARAM_Parallel                                -1
CPXPARAM_Simplex_Tolerances_Feasibility          1.0000000000000001e-09
CPXPARAM_DetTimeLimit                            100000
CPXPARAM_MIP_Tolerances_MIPGap                   0.01
Warning:  No solution found from 1 MIP starts.
Retaining values of one MIP start for possible repair.
Tried aggregator 3 times.
MIP Presolve eliminated 172867 rows and 35594 columns.
MIP Presolve added 7711 rows and 0 columns.
MIP Presolve modified 53774 coefficients.
Aggregator did 26044 substitutions.
Reduced MIP has 55701 rows, 47199 columns, and 182141 nonzeros.
Reduced MIP has 18721 binaries, 0 generals, 0 SOSs, and 0 indicators.
Presolve time = 0.63 sec. (387.52 ticks)
Probing fixed 715 vars, tightened 10917 bounds.
Probing time = 0.42 sec. (17.21 ticks)
Tried aggregator 2 times.
MIP Presolve eliminated 1622 rows and 1443 columns.
MIP Presolve modified 7045 coefficients.
Aggregator did 96 substitutions.
Reduced MIP has 53983 rows, 45660 columns, and 176947 nonzeros.
Reduced MIP has 18004 binaries, 0 generals, 0 SOSs, and 0 indicators.
Presolve time = 0.33 sec. (281.48 ticks)
Probing fixed 0 vars, tightened 376 bounds.
Probing time = 0.58 sec. (18.78 ticks)
Clique table members: 96629.
MIP emphasis: balance optimality and feasibility.
MIP search method: dynamic search.
Parallel mode: opportunistic, using up to 32 threads.
Root relaxation solution time = 1.98 sec. (3276.35 ticks)

        Nodes                                         Cuts/
   Node  Left     Objective  IInf  Best Integer    Best Bound    ItCnt     Gap

      0     0     5689.5081   388                   5689.5081    13297         
      0     0     5683.7092    98                   Cuts: 106    13379         
      0     0     5676.8883    98                    Cuts: 82    13449         
      0     0     5673.6290    91                    Cuts: 49    13481         
      0     0     5671.5338    92                    Cuts: 29    13507         
      0     0     5671.5338    95                     Cuts: 9    13513         
      0     0     5671.5338    89                 Flowcuts: 1    13514         
      0     0     5671.5338    90                 Flowcuts: 1    13515         
Repair heuristic found nothing.
      0    20     5522.8745    81                     Cuts: 3    13826         
Elapsed time = 18.16 sec. (12230.53 ticks, tree = 0.03 MB, solutions = 0)
    261    55     5607.2094    68                   5667.9824    14022         
    473    49     5592.0883    70                   5667.9824    14026         
    806   299     3258.0829   103                   5667.9824    17091         
   1026   754     5630.7785    38                   5667.9824    22281         
   1245   961     4824.5995    56                   5667.9824    24553         
   1454   895     5173.0731    39                   5667.9824    23733         
   1668  1337     5115.3595    31                   5667.9824    30523         
   1912  1485     5647.5724    44                   5667.9824    34005         
   2173  1971     5583.7349    47                   5667.9824    44026         
   3111  2423     3710.8191    44                   5667.9824    59223         
Elapsed time = 39.19 sec. (15334.89 ticks, tree = 33.35 MB, solutions = 0)
   4034  3056     3076.4526    40                   5667.9824    79629         
   4918  4554     5497.2940    70                   5667.9824   146058         
   5607  4567     5628.3256    69                   5667.9824   146571         
   5858  4458     3561.5900    50                   5667.9824   143740         
   5859  5288     5130.8320    76                   5664.8322   188913         
   6016    59     3975.7343    89                   5664.8322   189832         
   6377   628     5073.2371    74                   5664.8322   199401         
   7065   719     3402.4967    55                   5664.8322   200140         
   7762   655     3637.2178    83                   5664.8322   199756         
   8388   827    -3147.8960   192                   5664.8322   202158         
Elapsed time = 129.28 sec. (40591.36 ticks, tree = 80.94 MB, solutions = 0)
   8908  1724      357.7414    54                   5664.8322   220254         
   9446  2240     4830.6039    28                   5664.8322   231273         
  10067  3254    infeasible                         5664.8322   254008         
  10919  2751     4916.8090    55                   5664.8322   244852         
  11909  3774    -2379.7361    36                   5664.8322   263877         
  12901  3508    -2233.5492    77                   5664.8322   261021         
  13826  3871     3249.7519    58                   5664.8322   267573         
  14607  4913     1446.7608    71                   5664.8322   285435         
  15367  5217     4929.8558    54                   5664.8322   294977         
  16241  9481     4460.6344   132                   5664.5448   388031         
Elapsed time = 201.06 sec. (50138.29 ticks, tree = 279.39 MB, solutions = 0)
  17237  9830     4942.0773    74                   5664.5448   398584         
  18345  9555     5066.9769    72                   5664.5448   390029         
* 18867+  825                         5430.8439     5664.5448             4.30%
  19791 10033     5417.8564    21     5430.8439     5664.5448   402278    4.30%
  20870  9867     4845.1168    18     5430.8439     5664.5448   395567    4.30%
  21920 10484     5511.9304    29     5490.0827     5664.4839   412495    3.18%
  23231   775     5515.0668    65     5490.0827     5664.4839   424600    3.18%
  24735  2642        cutoff           5490.0827     5664.4839   488257    3.18%
  26438  1405    infeasible           5490.0827     5664.4839   455684    3.18%
  28141  1051     5472.1933     7     5490.0827     5664.4839   444076    3.18%
Elapsed time = 254.95 sec. (59158.53 ticks, tree = 11.53 MB, solutions = 13)
  29952  1723     5585.6057    58     5501.6698     5664.4839   467715    2.96%
  31756  2413     5571.9830    26     5501.6698     5664.4839   480364    2.96%
  33635  3093        cutoff           5560.9269     5658.4560   550510    1.75%
  35393  1602     5605.9597    54     5566.2939     5658.4560   517441    1.66%
  37079  1495     5614.3150    57     5566.2939     5658.4560   515742    1.66%
  38764  1942    infeasible           5566.2939     5658.4560   508489    1.66%
  40418  3321     5586.4699    87     5566.2939     5658.4560   553517    1.66%
  42035  2302     5584.8934    62     5566.2939     5658.4560   535848    1.66%
  43578  4642    infeasible           5566.2939     5658.4560   585186    1.66%
  45041  5233     5589.0413    44     5566.2939     5658.4560   596825    1.66%
Elapsed time = 312.98 sec. (68701.70 ticks, tree = 91.81 MB, solutions = 20)
  46509  3573     5617.9024    69     5566.2939     5658.4560   557115    1.66%
  47973  5124     5581.8406    58     5566.2939     5657.1205   595601    1.63%
  49460  5691     5641.9875    70     5566.2939     5654.5661   605755    1.59%
  50859  6063     5620.9464    56     5566.2939     5653.4999   609909    1.57%
  52348  9814     5633.6669    61     5566.2939     5651.7115   657881    1.53%
  53750  6028     5581.4687    39     5566.2939     5651.7115   609588    1.53%
  55294  8054     5591.7217    48     5566.2939     5651.7115   637018    1.53%
  56596 10133     5597.6550    58     5566.2939     5648.1928   661688    1.47%
  58073  7615    infeasible           5566.2939     5647.5239   630543    1.46%
  59598  8536     5582.1137    48     5566.2939     5647.5239   641608    1.46%
Elapsed time = 373.66 sec. (78244.91 ticks, tree = 148.32 MB, solutions = 20)
  61070 12348    infeasible           5566.2939     5645.2574   696371    1.42%
  62679  9629     5583.7022    63     5566.2939     5645.1940   656400    1.42%
  64293 13609        cutoff           5566.2939     5645.1940   715204    1.42%
  65991 13252    infeasible           5566.2939     5645.1940   710113    1.42%
  67697 17431     5597.2479    57     5566.2939     5645.1940   761376    1.42%
  69543 12477     5607.1256    47     5566.2939     5645.1940   698479    1.42%
  71225 18496     5614.2238    60     5566.2939     5643.7516   776296    1.39%
  72918 19734     5609.4588    40     5566.2939     5643.7516   791778    1.39%
  74585 14956    infeasible           5566.2939     5643.7516   728716    1.39%
  76151 15520     5616.5583    53     5566.2939     5643.7516   733445    1.39%
Elapsed time = 419.08 sec. (87788.07 ticks, tree = 273.00 MB, solutions = 20)
  77272 19812     5569.6366    39     5566.2939     5643.7516   792601    1.39%
  78420 17033     5603.2341    64     5566.2939     5643.7516   755985    1.39%
  79724 22316        cutoff           5566.2939     5643.7516   818139    1.39%
  81059 22118     5574.1192    48     5566.2939     5643.7516   814847    1.39%
  82461 20215     5614.3698    59     5566.2939     5643.7516   796116    1.39%
  83574 21080     5592.0056    49     5566.2939     5643.7516   803726    1.39%
  84494 19641     5611.8663    69     5566.2939     5643.7516   791296    1.39%
  85360 20965     5582.4972    56     5566.2939     5643.7516   802898    1.39%
  85745 22036     5579.5234    59     5566.2939     5643.7516   815079    1.39%
  86025 22397     5584.5211    59     5566.2939     5643.7516   816317    1.39%
Elapsed time = 433.61 sec. (97339.84 ticks, tree = 395.62 MB, solutions = 20)
  86312 22530        cutoff           5566.2939     5643.7516   820783    1.39%

GUB cover cuts applied:  1
Clique cuts applied:  12
Cover cuts applied:  53
Implied bound cuts applied:  12
Flow cuts applied:  177
Mixed integer rounding cuts applied:  20
Zero-half cuts applied:  3
Gomory fractional cuts applied:  20

Root node processing (before b&c):
  Real time             =   15.02 sec. (12190.35 ticks)
Parallel b&c, 32 threads:
  Real time             =  424.97 sec. (87852.22 ticks)
  Sync time (average)   =    2.62 sec.
  Wait time (average)   =    0.35 sec.
                          ------------
Total (root+branch&cut) =  439.98 sec. (100042.57 ticks)

Solution pool: 20 solutions saved.

MIP - Deterministic time limit exceeded, integer feasible:  Objective =  5.5662938700e+03
Current MIP best bound =  5.6360474872e+03 (gap = 69.7536, 1.25%)
Solution time =  440.02 sec.  Iterations = 892207  Nodes = 86343
Deterministic time = 100042.88 ticks  (227.36 ticks/sec)

CPLEX> Incumbent solution written to file 'C:\Users\llavin\Desktop\test826\logs\tmpxq4uphv0.cplex.sol'.
CPLEX> Exporting results... 
